 PPID
    0
    0
    2
    2
    2
    2
    2
    2
    2
    2
    2
    2
    2
    2
    2
    2
    2
    2
    2
    2
    2
    2
    2
    2
    2
    2
    2
    2
    2
    2
    2
    2
    2
    2
    2
    2
    2
    2
    2
    2
    2
    2
    2
    2
    2
    2
    2
    2
    2
    2
    2
    2
    2
    2
    2
    2
    2
    2
    2
    2
    2
    2
    2
    2
    2
    2
    2
    2
    2
    2
    2
    2
    2
    2
    2
    2
    2
    2
    2
    2
    2
    2
    2
    2
    2
    2
    2
    2
    2
    2
    2
    2
    2
    2
    2
    2
    2
    2
    2
    2
    2
    2
    2
    2
    2
    2
    2
    2
    2
    2
    2
    2
    2
    1
    2
    1
    2
    2
    2
    2
    2
    2
    1
12507
    1
    1
    1
    1
    1
    1
    1
    1
    1
    1
 1221
    1
    1
    1
    1
    1
    1
    2
    1
    2
    1
 1213
 1213
 1798
 1798
 1798
 1798
 1798
 1798
    1
    1
    1
    1
    1
    1
    2
    1
 2721
    1
    1
    1
 9368
 9368
 9368
 9368
 4499
 4499
 4501
 4499
 4499
 4554
 4499
 4554
 4554
 9368
 4693
 4693
 4693
 4585
 4693
 4693
 9368
 9368
 9368
    1
    1
    1
 7430
 7430
 5027
 9368
 5027
 5027
    1
 1365
 1365
    1
 9260
 9368
 9368
 9368
 9368
 9368
 9368
 9368
 9368
 9368
 9368
 9368
 9535
 9368
 9368
 9368
 9368
 9368
 9368
 9368
 9368
 9368
 9368
 9368
 9368
 9368
 9368
 9368
 9368
 9368
 9368
 9368
 9368
 9368
 9368
 9582
 9582
 9582
 9582
 9582
 9368
 9368
 9368
 9368
 9751
 9368
 9368
 9368
 9751
 9882
 9368
 9368
 9582
 9368
10135
 9368
 9582
 9582
 9368
 9368
11277
    1
    1
12507
 9368
    2
 5027
    2
 5027
 9368
12507
 4693
 4585
 5027
 4693
 4693
 9368
 9368
 9368
13735
 9368
 9368
 9368
13760
    2
12507
    2
    2
    2
    2
    2
    2
    2
    2
    2
12512
    2
    2
    2
    2
    2
    2
    2
    2
    2
    2
    2
    2
    2
    2
29387
17346
    2
17347
 4693
 4693
    2
    2
 5027
 5027
 5027
 4499
26912
26912
12507
28270
28282
28284
    2
    2
    2
12507
    2
    2
12507
